8746.0
1 0 0 1 0 0 0 0 0 1 1 0 0 1 0 1 0 1 0 1 
0 26 33 41 42 43 


1 8 15 28 34 36 44 





19 24 49 
2 3 13 17 35 40 47 


7 14 30 32 39 45 

5 10 16 20 21 22 31 46 

6 9 18 25 27 29 

4 11 12 23 37 38 48 
